c *********************************
c * Circuit generated by BenCGen
c *
c * CarrySelectAdder_24_24_24_InOut_G4T
c *
c * Ports with 1 gate(s): 38
c * Ports with 2 gate(s): 306
c * Ports with 4 gate(s): 10
c * Total gates: 354
c *********************************
p cnf 402 1132
1 75 0
-1 -75 0
1 -74 0
75 -74 0
-1 -75 74 0
74 92 0
-74 -92 0
1 25 -78 0
-1 25 78 0
1 -25 78 0
-1 -25 -78 0
78 74 -49 0
-78 74 49 0
78 -74 49 0
-78 -74 -49 0
74 -79 0
78 -79 0
-74 -78 79 0
25 -80 0
1 -80 0
-25 -1 80 0
-79 77 0
-80 77 0
79 80 -77 0
2 26 -82 0
-2 26 82 0
2 -26 82 0
-2 -26 -82 0
82 77 -50 0
-82 77 50 0
82 -77 50 0
-82 -77 -50 0
77 -83 0
82 -83 0
-77 -82 83 0
26 -84 0
2 -84 0
-26 -2 84 0
-83 81 0
-84 81 0
83 84 -81 0
3 27 -86 0
-3 27 86 0
3 -27 86 0
-3 -27 -86 0
86 81 -51 0
-86 81 51 0
86 -81 51 0
-86 -81 -51 0
81 -87 0
86 -87 0
-81 -86 87 0
27 -88 0
3 -88 0
-27 -3 88 0
-87 85 0
-88 85 0
87 88 -85 0
4 28 -89 0
-4 28 89 0
4 -28 89 0
-4 -28 -89 0
89 85 -52 0
-89 85 52 0
89 -85 52 0
-89 -85 -52 0
85 -90 0
89 -90 0
-85 -89 90 0
28 -91 0
4 -91 0
-28 -4 91 0
-90 76 0
-91 76 0
90 91 -76 0
5 29 -103 0
-5 29 103 0
5 -29 103 0
-5 -29 -103 0
103 74 -93 0
-103 74 93 0
103 -74 93 0
-103 -74 -93 0
74 -104 0
103 -104 0
-74 -103 104 0
29 -105 0
5 -105 0
-29 -5 105 0
-104 102 0
-105 102 0
104 105 -102 0
6 30 -107 0
-6 30 107 0
6 -30 107 0
-6 -30 -107 0
107 102 -94 0
-107 102 94 0
107 -102 94 0
-107 -102 -94 0
102 -108 0
107 -108 0
-102 -107 108 0
30 -109 0
6 -109 0
-30 -6 109 0
-108 106 0
-109 106 0
108 109 -106 0
7 31 -111 0
-7 31 111 0
7 -31 111 0
-7 -31 -111 0
111 106 -95 0
-111 106 95 0
111 -106 95 0
-111 -106 -95 0
106 -112 0
111 -112 0
-106 -111 112 0
31 -113 0
7 -113 0
-31 -7 113 0
-112 110 0
-113 110 0
112 113 -110 0
8 32 -114 0
-8 32 114 0
8 -32 114 0
-8 -32 -114 0
114 110 -96 0
-114 110 96 0
114 -110 96 0
-114 -110 -96 0
110 -115 0
114 -115 0
-110 -114 115 0
32 -116 0
8 -116 0
-32 -8 116 0
-115 101 0
-116 101 0
115 116 -101 0
103 -117 0
107 -117 0
111 -117 0
114 -117 0
-103 -107 -111 -114 117 0
116 -118 0
-116 118 0
5 29 -121 0
-5 29 121 0
5 -29 121 0
-5 -29 -121 0
121 92 -97 0
-121 92 97 0
121 -92 97 0
-121 -92 -97 0
92 -122 0
121 -122 0
-92 -121 122 0
29 -123 0
5 -123 0
-29 -5 123 0
-122 120 0
-123 120 0
122 123 -120 0
6 30 -125 0
-6 30 125 0
6 -30 125 0
-6 -30 -125 0
125 120 -98 0
-125 120 98 0
125 -120 98 0
-125 -120 -98 0
120 -126 0
125 -126 0
-120 -125 126 0
30 -127 0
6 -127 0
-30 -6 127 0
-126 124 0
-127 124 0
126 127 -124 0
7 31 -129 0
-7 31 129 0
7 -31 129 0
-7 -31 -129 0
129 124 -99 0
-129 124 99 0
129 -124 99 0
-129 -124 -99 0
124 -130 0
129 -130 0
-124 -129 130 0
31 -131 0
7 -131 0
-31 -7 131 0
-130 128 0
-131 128 0
130 131 -128 0
8 32 -132 0
-8 32 132 0
8 -32 132 0
-8 -32 -132 0
132 128 -100 0
-132 128 100 0
132 -128 100 0
-132 -128 -100 0
128 -133 0
132 -133 0
-128 -132 133 0
32 -134 0
8 -134 0
-32 -8 134 0
-133 119 0
-134 119 0
133 134 -119 0
121 -135 0
125 -135 0
129 -135 0
132 -135 0
-121 -125 -129 -132 135 0
134 -136 0
-134 136 0
9 33 -165 0
-9 33 165 0
9 -33 165 0
-9 -33 -165 0
165 74 -155 0
-165 74 155 0
165 -74 155 0
-165 -74 -155 0
74 -166 0
165 -166 0
-74 -165 166 0
33 -167 0
9 -167 0
-33 -9 167 0
-166 164 0
-167 164 0
166 167 -164 0
10 34 -169 0
-10 34 169 0
10 -34 169 0
-10 -34 -169 0
169 164 -156 0
-169 164 156 0
169 -164 156 0
-169 -164 -156 0
164 -170 0
169 -170 0
-164 -169 170 0
34 -171 0
10 -171 0
-34 -10 171 0
-170 168 0
-171 168 0
170 171 -168 0
11 35 -173 0
-11 35 173 0
11 -35 173 0
-11 -35 -173 0
173 168 -157 0
-173 168 157 0
173 -168 157 0
-173 -168 -157 0
168 -174 0
173 -174 0
-168 -173 174 0
35 -175 0
11 -175 0
-35 -11 175 0
-174 172 0
-175 172 0
174 175 -172 0
12 36 -176 0
-12 36 176 0
12 -36 176 0
-12 -36 -176 0
176 172 -158 0
-176 172 158 0
176 -172 158 0
-176 -172 -158 0
172 -177 0
176 -177 0
-172 -176 177 0
36 -178 0
12 -178 0
-36 -12 178 0
-177 163 0
-178 163 0
177 178 -163 0
165 -179 0
169 -179 0
173 -179 0
176 -179 0
-165 -169 -173 -176 179 0
178 -180 0
-178 180 0
9 33 -183 0
-9 33 183 0
9 -33 183 0
-9 -33 -183 0
183 92 -159 0
-183 92 159 0
183 -92 159 0
-183 -92 -159 0
92 -184 0
183 -184 0
-92 -183 184 0
33 -185 0
9 -185 0
-33 -9 185 0
-184 182 0
-185 182 0
184 185 -182 0
10 34 -187 0
-10 34 187 0
10 -34 187 0
-10 -34 -187 0
187 182 -160 0
-187 182 160 0
187 -182 160 0
-187 -182 -160 0
182 -188 0
187 -188 0
-182 -187 188 0
34 -189 0
10 -189 0
-34 -10 189 0
-188 186 0
-189 186 0
188 189 -186 0
11 35 -191 0
-11 35 191 0
11 -35 191 0
-11 -35 -191 0
191 186 -161 0
-191 186 161 0
191 -186 161 0
-191 -186 -161 0
186 -192 0
191 -192 0
-186 -191 192 0
35 -193 0
11 -193 0
-35 -11 193 0
-192 190 0
-193 190 0
192 193 -190 0
12 36 -194 0
-12 36 194 0
12 -36 194 0
-12 -36 -194 0
194 190 -162 0
-194 190 162 0
194 -190 162 0
-194 -190 -162 0
190 -195 0
194 -195 0
-190 -194 195 0
36 -196 0
12 -196 0
-36 -12 196 0
-195 181 0
-196 181 0
195 196 -181 0
183 -197 0
187 -197 0
191 -197 0
194 -197 0
-183 -187 -191 -194 197 0
196 -198 0
-196 198 0
13 37 -227 0
-13 37 227 0
13 -37 227 0
-13 -37 -227 0
227 74 -217 0
-227 74 217 0
227 -74 217 0
-227 -74 -217 0
74 -228 0
227 -228 0
-74 -227 228 0
37 -229 0
13 -229 0
-37 -13 229 0
-228 226 0
-229 226 0
228 229 -226 0
14 38 -231 0
-14 38 231 0
14 -38 231 0
-14 -38 -231 0
231 226 -218 0
-231 226 218 0
231 -226 218 0
-231 -226 -218 0
226 -232 0
231 -232 0
-226 -231 232 0
38 -233 0
14 -233 0
-38 -14 233 0
-232 230 0
-233 230 0
232 233 -230 0
15 39 -235 0
-15 39 235 0
15 -39 235 0
-15 -39 -235 0
235 230 -219 0
-235 230 219 0
235 -230 219 0
-235 -230 -219 0
230 -236 0
235 -236 0
-230 -235 236 0
39 -237 0
15 -237 0
-39 -15 237 0
-236 234 0
-237 234 0
236 237 -234 0
16 40 -238 0
-16 40 238 0
16 -40 238 0
-16 -40 -238 0
238 234 -220 0
-238 234 220 0
238 -234 220 0
-238 -234 -220 0
234 -239 0
238 -239 0
-234 -238 239 0
40 -240 0
16 -240 0
-40 -16 240 0
-239 225 0
-240 225 0
239 240 -225 0
227 -241 0
231 -241 0
235 -241 0
238 -241 0
-227 -231 -235 -238 241 0
240 -242 0
-240 242 0
13 37 -245 0
-13 37 245 0
13 -37 245 0
-13 -37 -245 0
245 92 -221 0
-245 92 221 0
245 -92 221 0
-245 -92 -221 0
92 -246 0
245 -246 0
-92 -245 246 0
37 -247 0
13 -247 0
-37 -13 247 0
-246 244 0
-247 244 0
246 247 -244 0
14 38 -249 0
-14 38 249 0
14 -38 249 0
-14 -38 -249 0
249 244 -222 0
-249 244 222 0
249 -244 222 0
-249 -244 -222 0
244 -250 0
249 -250 0
-244 -249 250 0
38 -251 0
14 -251 0
-38 -14 251 0
-250 248 0
-251 248 0
250 251 -248 0
15 39 -253 0
-15 39 253 0
15 -39 253 0
-15 -39 -253 0
253 248 -223 0
-253 248 223 0
253 -248 223 0
-253 -248 -223 0
248 -254 0
253 -254 0
-248 -253 254 0
39 -255 0
15 -255 0
-39 -15 255 0
-254 252 0
-255 252 0
254 255 -252 0
16 40 -256 0
-16 40 256 0
16 -40 256 0
-16 -40 -256 0
256 252 -224 0
-256 252 224 0
256 -252 224 0
-256 -252 -224 0
252 -257 0
256 -257 0
-252 -256 257 0
40 -258 0
16 -258 0
-40 -16 258 0
-257 243 0
-258 243 0
257 258 -243 0
245 -259 0
249 -259 0
253 -259 0
256 -259 0
-245 -249 -253 -256 259 0
258 -260 0
-258 260 0
17 41 -289 0
-17 41 289 0
17 -41 289 0
-17 -41 -289 0
289 74 -279 0
-289 74 279 0
289 -74 279 0
-289 -74 -279 0
74 -290 0
289 -290 0
-74 -289 290 0
41 -291 0
17 -291 0
-41 -17 291 0
-290 288 0
-291 288 0
290 291 -288 0
18 42 -293 0
-18 42 293 0
18 -42 293 0
-18 -42 -293 0
293 288 -280 0
-293 288 280 0
293 -288 280 0
-293 -288 -280 0
288 -294 0
293 -294 0
-288 -293 294 0
42 -295 0
18 -295 0
-42 -18 295 0
-294 292 0
-295 292 0
294 295 -292 0
19 43 -297 0
-19 43 297 0
19 -43 297 0
-19 -43 -297 0
297 292 -281 0
-297 292 281 0
297 -292 281 0
-297 -292 -281 0
292 -298 0
297 -298 0
-292 -297 298 0
43 -299 0
19 -299 0
-43 -19 299 0
-298 296 0
-299 296 0
298 299 -296 0
20 44 -300 0
-20 44 300 0
20 -44 300 0
-20 -44 -300 0
300 296 -282 0
-300 296 282 0
300 -296 282 0
-300 -296 -282 0
296 -301 0
300 -301 0
-296 -300 301 0
44 -302 0
20 -302 0
-44 -20 302 0
-301 287 0
-302 287 0
301 302 -287 0
289 -303 0
293 -303 0
297 -303 0
300 -303 0
-289 -293 -297 -300 303 0
302 -304 0
-302 304 0
17 41 -307 0
-17 41 307 0
17 -41 307 0
-17 -41 -307 0
307 92 -283 0
-307 92 283 0
307 -92 283 0
-307 -92 -283 0
92 -308 0
307 -308 0
-92 -307 308 0
41 -309 0
17 -309 0
-41 -17 309 0
-308 306 0
-309 306 0
308 309 -306 0
18 42 -311 0
-18 42 311 0
18 -42 311 0
-18 -42 -311 0
311 306 -284 0
-311 306 284 0
311 -306 284 0
-311 -306 -284 0
306 -312 0
311 -312 0
-306 -311 312 0
42 -313 0
18 -313 0
-42 -18 313 0
-312 310 0
-313 310 0
312 313 -310 0
19 43 -315 0
-19 43 315 0
19 -43 315 0
-19 -43 -315 0
315 310 -285 0
-315 310 285 0
315 -310 285 0
-315 -310 -285 0
310 -316 0
315 -316 0
-310 -315 316 0
43 -317 0
19 -317 0
-43 -19 317 0
-316 314 0
-317 314 0
316 317 -314 0
20 44 -318 0
-20 44 318 0
20 -44 318 0
-20 -44 -318 0
318 314 -286 0
-318 314 286 0
318 -314 286 0
-318 -314 -286 0
314 -319 0
318 -319 0
-314 -318 319 0
44 -320 0
20 -320 0
-44 -20 320 0
-319 305 0
-320 305 0
319 320 -305 0
307 -321 0
311 -321 0
315 -321 0
318 -321 0
-307 -311 -315 -318 321 0
320 -322 0
-320 322 0
21 45 -351 0
-21 45 351 0
21 -45 351 0
-21 -45 -351 0
351 74 -341 0
-351 74 341 0
351 -74 341 0
-351 -74 -341 0
74 -352 0
351 -352 0
-74 -351 352 0
45 -353 0
21 -353 0
-45 -21 353 0
-352 350 0
-353 350 0
352 353 -350 0
22 46 -355 0
-22 46 355 0
22 -46 355 0
-22 -46 -355 0
355 350 -342 0
-355 350 342 0
355 -350 342 0
-355 -350 -342 0
350 -356 0
355 -356 0
-350 -355 356 0
46 -357 0
22 -357 0
-46 -22 357 0
-356 354 0
-357 354 0
356 357 -354 0
23 47 -359 0
-23 47 359 0
23 -47 359 0
-23 -47 -359 0
359 354 -343 0
-359 354 343 0
359 -354 343 0
-359 -354 -343 0
354 -360 0
359 -360 0
-354 -359 360 0
47 -361 0
23 -361 0
-47 -23 361 0
-360 358 0
-361 358 0
360 361 -358 0
24 48 -362 0
-24 48 362 0
24 -48 362 0
-24 -48 -362 0
362 358 -344 0
-362 358 344 0
362 -358 344 0
-362 -358 -344 0
358 -363 0
362 -363 0
-358 -362 363 0
48 -364 0
24 -364 0
-48 -24 364 0
-363 349 0
-364 349 0
363 364 -349 0
351 -365 0
355 -365 0
359 -365 0
362 -365 0
-351 -355 -359 -362 365 0
364 -366 0
-364 366 0
21 45 -369 0
-21 45 369 0
21 -45 369 0
-21 -45 -369 0
369 92 -345 0
-369 92 345 0
369 -92 345 0
-369 -92 -345 0
92 -370 0
369 -370 0
-92 -369 370 0
45 -371 0
21 -371 0
-45 -21 371 0
-370 368 0
-371 368 0
370 371 -368 0
22 46 -373 0
-22 46 373 0
22 -46 373 0
-22 -46 -373 0
373 368 -346 0
-373 368 346 0
373 -368 346 0
-373 -368 -346 0
368 -374 0
373 -374 0
-368 -373 374 0
46 -375 0
22 -375 0
-46 -22 375 0
-374 372 0
-375 372 0
374 375 -372 0
23 47 -377 0
-23 47 377 0
23 -47 377 0
-23 -47 -377 0
377 372 -347 0
-377 372 347 0
377 -372 347 0
-377 -372 -347 0
372 -378 0
377 -378 0
-372 -377 378 0
47 -379 0
23 -379 0
-47 -23 379 0
-378 376 0
-379 376 0
378 379 -376 0
24 48 -380 0
-24 48 380 0
24 -48 380 0
-24 -48 -380 0
380 376 -348 0
-380 376 348 0
380 -376 348 0
-380 -376 -348 0
376 -381 0
380 -381 0
-376 -380 381 0
48 -382 0
24 -382 0
-48 -24 382 0
-381 367 0
-382 367 0
381 382 -367 0
369 -383 0
373 -383 0
377 -383 0
380 -383 0
-369 -373 -377 -380 383 0
382 -384 0
-382 384 0
76 138 0
-76 -138 0
138 -139 0
93 -139 0
-138 -93 139 0
76 -140 0
97 -140 0
-76 -97 140 0
-139 53 0
-140 53 0
139 140 -53 0
76 141 0
-76 -141 0
141 -142 0
94 -142 0
-141 -94 142 0
76 -143 0
98 -143 0
-76 -98 143 0
-142 54 0
-143 54 0
142 143 -54 0
76 144 0
-76 -144 0
144 -145 0
95 -145 0
-144 -95 145 0
76 -146 0
99 -146 0
-76 -99 146 0
-145 55 0
-146 55 0
145 146 -55 0
76 147 0
-76 -147 0
147 -148 0
96 -148 0
-147 -96 148 0
76 -149 0
100 -149 0
-76 -100 149 0
-148 56 0
-149 56 0
148 149 -56 0
76 150 0
-76 -150 0
150 -151 0
101 -151 0
-150 -101 151 0
76 -152 0
119 -152 0
-76 -119 152 0
-151 137 0
-152 137 0
151 152 -137 0
76 -153 0
135 -153 0
-76 -135 153 0
-153 154 0
-137 154 0
153 137 -154 0
154 200 0
-154 -200 0
200 -201 0
155 -201 0
-200 -155 201 0
154 -202 0
159 -202 0
-154 -159 202 0
-201 57 0
-202 57 0
201 202 -57 0
154 203 0
-154 -203 0
203 -204 0
156 -204 0
-203 -156 204 0
154 -205 0
160 -205 0
-154 -160 205 0
-204 58 0
-205 58 0
204 205 -58 0
154 206 0
-154 -206 0
206 -207 0
157 -207 0
-206 -157 207 0
154 -208 0
161 -208 0
-154 -161 208 0
-207 59 0
-208 59 0
207 208 -59 0
154 209 0
-154 -209 0
209 -210 0
158 -210 0
-209 -158 210 0
154 -211 0
162 -211 0
-154 -162 211 0
-210 60 0
-211 60 0
210 211 -60 0
154 212 0
-154 -212 0
212 -213 0
163 -213 0
-212 -163 213 0
154 -214 0
181 -214 0
-154 -181 214 0
-213 199 0
-214 199 0
213 214 -199 0
154 -215 0
197 -215 0
-154 -197 215 0
-215 216 0
-199 216 0
215 199 -216 0
216 262 0
-216 -262 0
262 -263 0
217 -263 0
-262 -217 263 0
216 -264 0
221 -264 0
-216 -221 264 0
-263 61 0
-264 61 0
263 264 -61 0
216 265 0
-216 -265 0
265 -266 0
218 -266 0
-265 -218 266 0
216 -267 0
222 -267 0
-216 -222 267 0
-266 62 0
-267 62 0
266 267 -62 0
216 268 0
-216 -268 0
268 -269 0
219 -269 0
-268 -219 269 0
216 -270 0
223 -270 0
-216 -223 270 0
-269 63 0
-270 63 0
269 270 -63 0
216 271 0
-216 -271 0
271 -272 0
220 -272 0
-271 -220 272 0
216 -273 0
224 -273 0
-216 -224 273 0
-272 64 0
-273 64 0
272 273 -64 0
216 274 0
-216 -274 0
274 -275 0
225 -275 0
-274 -225 275 0
216 -276 0
243 -276 0
-216 -243 276 0
-275 261 0
-276 261 0
275 276 -261 0
216 -277 0
259 -277 0
-216 -259 277 0
-277 278 0
-261 278 0
277 261 -278 0
278 324 0
-278 -324 0
324 -325 0
279 -325 0
-324 -279 325 0
278 -326 0
283 -326 0
-278 -283 326 0
-325 65 0
-326 65 0
325 326 -65 0
278 327 0
-278 -327 0
327 -328 0
280 -328 0
-327 -280 328 0
278 -329 0
284 -329 0
-278 -284 329 0
-328 66 0
-329 66 0
328 329 -66 0
278 330 0
-278 -330 0
330 -331 0
281 -331 0
-330 -281 331 0
278 -332 0
285 -332 0
-278 -285 332 0
-331 67 0
-332 67 0
331 332 -67 0
278 333 0
-278 -333 0
333 -334 0
282 -334 0
-333 -282 334 0
278 -335 0
286 -335 0
-278 -286 335 0
-334 68 0
-335 68 0
334 335 -68 0
278 336 0
-278 -336 0
336 -337 0
287 -337 0
-336 -287 337 0
278 -338 0
305 -338 0
-278 -305 338 0
-337 323 0
-338 323 0
337 338 -323 0
278 -339 0
321 -339 0
-278 -321 339 0
-339 340 0
-323 340 0
339 323 -340 0
340 386 0
-340 -386 0
386 -387 0
341 -387 0
-386 -341 387 0
340 -388 0
345 -388 0
-340 -345 388 0
-387 69 0
-388 69 0
387 388 -69 0
340 389 0
-340 -389 0
389 -390 0
342 -390 0
-389 -342 390 0
340 -391 0
346 -391 0
-340 -346 391 0
-390 70 0
-391 70 0
390 391 -70 0
340 392 0
-340 -392 0
392 -393 0
343 -393 0
-392 -343 393 0
340 -394 0
347 -394 0
-340 -347 394 0
-393 71 0
-394 71 0
393 394 -71 0
340 395 0
-340 -395 0
395 -396 0
344 -396 0
-395 -344 396 0
340 -397 0
348 -397 0
-340 -348 397 0
-396 72 0
-397 72 0
396 397 -72 0
340 398 0
-340 -398 0
398 -399 0
349 -399 0
-398 -349 399 0
340 -400 0
367 -400 0
-340 -367 400 0
-399 385 0
-400 385 0
399 400 -385 0
340 -401 0
383 -401 0
-340 -383 401 0
-401 402 0
-385 402 0
401 385 -402 0
402 -73 0
-402 73 0
